Route #1: 30 59 16 34 44 48 9 12 45
Route #2: 46 13 5 14 62 21 54 17
Route #3: 67 36 32 6 58 10 24 18 28 42
Route #4: 47 7 43 66 65 27
Route #5: 31 4 60 35 64
Route #6: 49 2 22 51 61 33 56
Route #7: 26 57 8 37 41 20 52 15
Route #8: 1 29 25 38 53 19
Route #9: 50 40 55 3 11 23 39 63
Cost 1318.888369323539